param n := 60;
param c := 10000
param : V : p w :=
   0	   8	 485
   1	  43	 256
   2	  96	 259
   3	  59	 491
   4	  50	 251
   5	  48	 258
   6	  40	 353
   7	   2	 312
   8	  69	 335
   9	  60	 498
  10	  23	 250
  11	  29	 252
  12	  63	 361
  13	  23	 293
  14	   8	 346
  15	  92	 378
  16	  10	 252
  17	  11	 370
  18	  73	 451
  19	  10	 256
  20	  71	 293
  21	  26	 439
  22	  59	 269
  23	  73	 292
  24	  52	 453
  25	  34	 263
  26	  98	 284
  27	  92	 398
  28	  68	 259
  29	  17	 343
  30	   6	 391
  31	 100	 255
  32	  66	 354
  33	  23	 462
  34	  19	 252
  35	  96	 286
  36	  50	 363
  37	  84	 254
  38	  23	 383
  39	  27	 381
  40	  45	 278
  41	  39	 341
  42	  72	 454
  43	  62	 251
  44	  50	 295
  45	  73	 356
  46	   5	 283
  47	  48	 361
  48	  92	 453
  49	  32	 272
  50	  90	 275
  51	  66	 357
  52	   7	 275
  53	  70	 368
  54	  71	 468
  55	  36	 250
  56	  35	 282
  57	  64	 352
  58	  92	 280
  59	  86	 368
;

set E :=
   0	   3
   0	   6
   0	   7
   0	  12
   0	  15
   0	  18
   0	  19
   0	  20
   0	  24
   0	  26
   0	  28
   0	  30
   0	  32
   0	  37
   0	  39
   0	  41
   0	  43
   0	  48
   1	   4
   1	   5
   1	   8
   1	  12
   1	  15
   1	  16
   1	  18
   1	  23
   1	  25
   1	  32
   1	  44
   1	  47
   1	  49
   1	  56
   2	   4
   2	   6
   2	   7
   2	   9
   2	  13
   2	  16
   2	  18
   2	  20
   2	  21
   2	  23
   2	  24
   2	  27
   2	  30
   2	  31
   2	  36
   2	  37
   2	  43
   2	  47
   2	  49
   2	  50
   2	  55
   2	  58
   3	   7
   3	   9
   3	  10
   3	  11
   3	  17
   3	  21
   3	  22
   3	  27
   3	  28
   3	  31
   3	  34
   3	  41
   3	  42
   3	  43
   3	  48
   3	  49
   3	  51
   3	  56
   4	   7
   4	   8
   4	   9
   4	  11
   4	  14
   4	  16
   4	  21
   4	  25
   4	  28
   4	  35
   4	  37
   4	  39
   4	  47
   4	  54
   4	  57
   4	  59
   5	   8
   5	  10
   5	  15
   5	  17
   5	  18
   5	  19
   5	  22
   5	  23
   5	  25
   5	  30
   5	  35
   5	  37
   5	  38
   5	  39
   5	  41
   5	  43
   5	  47
   5	  49
   5	  51
   5	  53
   5	  54
   6	   8
   6	  11
   6	  17
   6	  19
   6	  26
   6	  29
   6	  30
   6	  32
   6	  33
   6	  37
   6	  42
   6	  43
   6	  46
   6	  48
   6	  49
   6	  52
   6	  55
   7	   9
   7	  11
   7	  15
   7	  19
   7	  20
   7	  25
   7	  26
   7	  30
   7	  31
   7	  32
   7	  35
   7	  38
   7	  42
   7	  44
   7	  48
   7	  54
   7	  58
   8	  10
   8	  12
   8	  13
   8	  17
   8	  18
   8	  21
   8	  22
   8	  25
   8	  28
   8	  35
   8	  37
   8	  38
   8	  41
   8	  45
   8	  53
   8	  55
   8	  57
   9	  14
   9	  21
   9	  25
   9	  37
   9	  40
   9	  41
   9	  43
   9	  50
   9	  51
   9	  53
   9	  54
   9	  55
   9	  56
   9	  57
   9	  58
  10	  13
  10	  14
  10	  16
  10	  20
  10	  22
  10	  25
  10	  27
  10	  29
  10	  31
  10	  33
  10	  35
  10	  37
  10	  40
  10	  43
  10	  45
  10	  47
  10	  55
  10	  56
  11	  13
  11	  14
  11	  15
  11	  18
  11	  19
  11	  20
  11	  23
  11	  24
  11	  31
  11	  39
  11	  45
  11	  53
  11	  55
  11	  58
  11	  59
  12	  14
  12	  15
  12	  16
  12	  17
  12	  20
  12	  29
  12	  30
  12	  33
  12	  40
  12	  41
  12	  44
  12	  45
  12	  51
  12	  53
  12	  59
  13	  20
  13	  21
  13	  23
  13	  27
  13	  29
  13	  32
  13	  33
  13	  34
  13	  44
  13	  46
  13	  48
  13	  49
  13	  51
  13	  56
  14	  21
  14	  24
  14	  28
  14	  31
  14	  32
  14	  33
  14	  37
  14	  38
  14	  49
  14	  58
  14	  59
  15	  19
  15	  20
  15	  23
  15	  24
  15	  27
  15	  33
  15	  39
  15	  44
  15	  48
  15	  54
  15	  56
  15	  57
  16	  17
  16	  18
  16	  25
  16	  26
  16	  27
  16	  29
  16	  30
  16	  32
  16	  34
  16	  38
  16	  44
  16	  46
  16	  47
  16	  50
  17	  23
  17	  24
  17	  27
  17	  34
  17	  35
  17	  39
  17	  49
  17	  51
  17	  53
  17	  58
  17	  59
  18	  21
  18	  27
  18	  29
  18	  33
  18	  35
  18	  40
  18	  49
  18	  50
  18	  51
  18	  53
  18	  59
  19	  21
  19	  35
  19	  37
  19	  38
  19	  44
  19	  46
  19	  49
  19	  58
  20	  22
  20	  25
  20	  27
  20	  29
  20	  31
  20	  36
  20	  42
  20	  43
  20	  45
  20	  52
  20	  54
  20	  59
  21	  27
  21	  31
  21	  35
  21	  38
  21	  39
  21	  41
  22	  31
  22	  34
  22	  36
  22	  38
  22	  45
  22	  47
  22	  48
  22	  49
  22	  52
  23	  24
  23	  27
  23	  31
  23	  32
  23	  40
  23	  44
  23	  45
  23	  46
  23	  48
  23	  51
  23	  52
  23	  54
  23	  55
  23	  57
  23	  58
  24	  25
  24	  27
  24	  29
  24	  30
  24	  32
  24	  34
  24	  38
  24	  39
  24	  41
  24	  45
  24	  48
  24	  49
  24	  54
  25	  36
  25	  39
  25	  40
  25	  42
  25	  46
  25	  54
  25	  57
  26	  30
  26	  35
  26	  42
  26	  43
  26	  44
  26	  46
  26	  47
  26	  48
  26	  51
  27	  30
  27	  34
  27	  37
  27	  39
  27	  40
  27	  41
  27	  42
  27	  43
  27	  45
  27	  49
  27	  51
  27	  54
  27	  58
  27	  59
  28	  32
  28	  34
  28	  37
  28	  43
  28	  52
  29	  30
  29	  32
  29	  36
  29	  38
  29	  41
  29	  48
  29	  52
  29	  56
  30	  31
  30	  34
  30	  36
  30	  38
  30	  41
  30	  43
  30	  51
  30	  59
  31	  34
  31	  35
  31	  36
  31	  38
  31	  40
  31	  42
  31	  44
  31	  45
  31	  50
  31	  57
  32	  37
  32	  38
  32	  39
  32	  50
  32	  59
  33	  36
  33	  37
  33	  40
  33	  46
  33	  49
  33	  53
  33	  55
  33	  56
  33	  58
  34	  36
  34	  37
  34	  43
  34	  46
  34	  50
  34	  53
  35	  41
  35	  43
  35	  45
  35	  51
  35	  53
  35	  59
  36	  37
  36	  41
  36	  47
  36	  49
  36	  54
  36	  55
  36	  56
  37	  40
  37	  41
  37	  42
  37	  44
  37	  45
  37	  54
  38	  42
  38	  44
  38	  48
  38	  50
  38	  51
  38	  56
  38	  57
  38	  58
  39	  40
  39	  42
  39	  44
  39	  45
  39	  46
  39	  52
  39	  55
  39	  56
  39	  57
  40	  41
  40	  43
  40	  51
  40	  57
  40	  59
  41	  42
  41	  47
  41	  48
  41	  50
  41	  52
  42	  43
  42	  44
  42	  45
  42	  46
  42	  47
  42	  48
  42	  49
  42	  50
  42	  58
  42	  59
  43	  49
  43	  51
  43	  57
  44	  47
  44	  52
  45	  47
  45	  55
  45	  57
  46	  49
  46	  52
  46	  54
  46	  56
  46	  59
  47	  49
  47	  51
  47	  52
  47	  53
  47	  57
  47	  59
  48	  54
  48	  56
  48	  57
  48	  59
  49	  50
  49	  51
  49	  56
  49	  57
  49	  58
  49	  59
  50	  56
  50	  58
  50	  59
  51	  54
  51	  58
  52	  53
  52	  55
  52	  58
  53	  59
  54	  56
  54	  59
  55	  57
  56	  58
  57	  58
  57	  59
;
